peakDumbCharging = 29600; 
Machine = anon_enum(16); 
machineSpeed = [3700,3700,3700,3700,3700,3700,3700,3700,3700,3700,3700,3700,3700,3700,3700,3700]; 
machineLoad = [3700,3700,3700,3700,3700,3700,3700,3700,3700,3700,3700,3700,3700,3700,3700,3700]; 
Car = anon_enum(33); 
demandCar = [4520,7120,4320,3080,5520,18920,3760,5160,5040,4280,1680,960,7840,6840,6920,13240,7480,8680,2240,4640,6120,13200,6760,14400,7600,7360,4520,4040,9960,1320,11400,19600,17240]; 
arrivalCar = [80,77,71,65,63,61,60,59,59,56,56,56,55,52,52,52,51,51,50,49,49,48,48,48,47,47,46,45,45,44,44,35,32]; 
departureCar = [82,80,73,68,66,67,64,62,62,64,58,57,59,60,55,59,56,56,52,52,53,53,52,57,51,50,50,49,49,45,49,41,39]; 
